decision_x1=[0,4];
decision_x2=[0,4];
decision_x3=[0,4];
decision_x4=[0,4];
decision_x5=[0,4];
decision_x6=[0,4];
decision_x7=[0,4];
decision_x8=[0,4];
decision_x9=[0,4];
decision_x10=[0,4];
random_y1=[0,4];
random_y2=[0,4];
random_y3=[0,4];
random_y4=[0,4];
random_y5=[0,4];
constraint_x3_x1=[
0,1,0.052|
0,2,6.5|
0,3,3.5|
0,4,2.6|
1,0,2.6|
1,2,2.1|
1,3,1.9|
1,4,3.8|
2,0,7.2|
2,1,7.8|
2,3,4.8|
2,4,7.4|
3,0,8|
3,1,5.8|
3,2,6.8|
3,4,4.3|
4,0,1.7|
4,1,9.3|
4,2,3.4|
4,3,6.3|
];
constraint_x3_x2=[
0,1,3.8|
0,2,9.2|
0,3,6.6|
0,4,5.1|
1,0,3.1|
1,2,1.5|
1,3,4.6|
1,4,8.2|
2,0,6.3|
2,1,3.8|
2,3,6.5|
2,4,6.5|
3,0,2.3|
3,1,3.5|
3,2,3.3|
3,4,7.6|
4,0,4.8|
4,1,8|
4,2,8.7|
4,3,5.5|
];
constraint_x4_x1=[
0,1,6.5|
0,2,0.76|
0,3,0.089|
0,4,3.4|
1,0,8|
1,2,6.3|
1,3,0.83|
1,4,1.3|
2,0,7.7|
2,1,8.3|
2,3,3.2|
2,4,8.6|
3,0,0.47|
3,1,2|
3,2,1.8|
3,4,7.8|
4,0,6.6|
4,1,8.8|
4,2,3.9|
4,3,7|
];
constraint_x5_x1=[
0,1,3.8|
0,2,2.1|
0,3,4.6|
0,4,6|
1,0,3.4|
1,2,4|
1,3,6.7|
1,4,1.6|
2,0,6|
2,1,5.3|
2,3,9.7|
2,4,9|
3,0,1|
3,1,7.6|
3,2,1.9|
3,4,8.6|
4,0,1.2|
4,1,2.5|
4,2,8|
4,3,8|
];
constraint_x5_x2=[
0,1,3.9|
0,2,8.5|
0,3,8.5|
0,4,1.4|
1,0,3.3|
1,2,7.6|
1,3,2.4|
1,4,8.6|
2,0,7.5|
2,1,7.1|
2,3,1.6|
2,4,8.6|
3,0,7.6|
3,1,4.3|
3,2,6.8|
3,4,5.9|
4,0,3.9|
4,1,7.2|
4,2,2.7|
4,3,3.4|
];
constraint_x5_x3=[
0,1,6.5|
0,2,5.8|
0,3,6.8|
0,4,1.9|
1,0,1.7|
1,2,5.2|
1,3,6.5|
1,4,1.8|
2,0,2.6|
2,1,6|
2,3,5.7|
2,4,9.7|
3,0,7.8|
3,1,0.53|
3,2,3.8|
3,4,4.1|
4,0,8.7|
4,1,0.79|
4,2,4.5|
4,3,7.8|
];
constraint_x6_x1=[
0,1,1.7|
0,2,9.4|
0,3,2.9|
0,4,8.3|
1,0,3.6|
1,2,6.8|
1,3,9.6|
1,4,7.6|
2,0,0.57|
2,1,9.2|
2,3,4.4|
2,4,8.3|
3,0,4|
3,1,8.6|
3,2,3.3|
3,4,1|
4,0,9.2|
4,1,5.5|
4,2,3.6|
4,3,0.38|
];
constraint_x6_x3=[
0,1,9.5|
0,2,0.78|
0,3,4.8|
0,4,8|
1,0,4.5|
1,2,5.9|
1,3,9.3|
1,4,3.7|
2,0,0.24|
2,1,4.7|
2,3,8.8|
2,4,2.4|
3,0,8.7|
3,1,9.4|
3,2,2.2|
3,4,1.3|
4,0,3|
4,1,6|
4,2,10|
4,3,9.6|
];
constraint_x7_x2=[
0,1,3.8|
0,2,6.9|
0,3,0.061|
0,4,6.9|
1,0,7.8|
1,2,0.92|
1,3,8.8|
1,4,2.5|
2,0,5.5|
2,1,6.6|
2,3,8.2|
2,4,2.5|
3,0,1.5|
3,1,10|
3,2,0.93|
3,4,8.4|
4,0,8.9|
4,1,5.2|
4,2,6.2|
4,3,6.8|
];
constraint_x7_x4=[
0,1,1.5|
0,2,9|
0,3,5.1|
0,4,8.4|
1,0,8.2|
1,2,0.54|
1,3,0.14|
1,4,3.2|
2,0,5.6|
2,1,8.9|
2,3,6.1|
2,4,6.2|
3,0,4.6|
3,1,2.7|
3,2,3.6|
3,4,7.6|
4,0,0.57|
4,1,7.7|
4,2,3.5|
4,3,1.6|
];
constraint_x7_x6=[
0,1,4.3|
0,2,9.6|
0,3,9|
0,4,9.4|
1,0,2.6|
1,2,6.7|
1,3,9.6|
1,4,3.3|
2,0,4.9|
2,1,9.2|
2,3,3.5|
2,4,9.1|
3,0,6.5|
3,1,3.1|
3,2,3.1|
3,4,8|
4,0,8.9|
4,1,7.5|
4,2,1.8|
4,3,9.7|
];
constraint_x8_x1=[
0,1,2.5|
0,2,3.2|
0,3,4.5|
0,4,5.8|
1,0,4.8|
1,2,6.5|
1,3,9.2|
1,4,0.73|
2,0,7.3|
2,1,3|
2,3,4.2|
2,4,9.8|
3,0,9.7|
3,1,7.8|
3,2,1.7|
3,4,9.7|
4,0,0.61|
4,1,2.7|
4,2,4.8|
4,3,8.2|
];
constraint_x8_x2=[
0,1,7.8|
0,2,8.9|
0,3,7.9|
0,4,5.3|
1,0,2.7|
1,2,1.4|
1,3,1.7|
1,4,8.3|
2,0,9.4|
2,1,8|
2,3,4.8|
2,4,4.5|
3,0,3.5|
3,1,0.17|
3,2,6.5|
3,4,10|
4,0,8.3|
4,1,4.8|
4,2,3.6|
4,3,1.2|
];
constraint_x8_x6=[
0,1,5.7|
0,2,6.4|
0,3,8.9|
0,4,0.2|
1,0,1.3|
1,2,7.4|
1,3,7|
1,4,9.6|
2,0,0.57|
2,1,0.44|
2,3,5.1|
2,4,4.1|
3,0,4|
3,1,2.6|
3,2,3.7|
3,4,2|
4,0,3.4|
4,1,0.15|
4,2,8.1|
4,3,5.8|
];
constraint_x9_x4=[
0,1,2.2|
0,2,8.1|
0,3,7.3|
0,4,7.4|
1,0,0.31|
1,2,4.2|
1,3,1.1|
1,4,0.49|
2,0,8.2|
2,1,4.7|
2,3,9.7|
2,4,2.7|
3,0,1.5|
3,1,1.1|
3,2,3.1|
3,4,0.71|
4,0,3.5|
4,1,9.9|
4,2,5.6|
4,3,3.9|
];
constraint_x9_x5=[
0,1,3.6|
0,2,0.65|
0,3,2.9|
0,4,3.9|
1,0,1.9|
1,2,6.9|
1,3,7.1|
1,4,1.7|
2,0,1.8|
2,1,6.7|
2,3,3.6|
2,4,1.3|
3,0,9.1|
3,1,1.1|
3,2,8.8|
3,4,7.3|
4,0,8.2|
4,1,8.4|
4,2,5.2|
4,3,7.4|
];
constraint_x9_x7=[
0,1,8.4|
0,2,1.7|
0,3,6.6|
0,4,6.4|
1,0,2.9|
1,2,1.4|
1,3,1.4|
1,4,6.8|
2,0,3.3|
2,1,8.7|
2,3,6.8|
2,4,9.7|
3,0,9.5|
3,1,4|
3,2,9.3|
3,4,4.8|
4,0,5.8|
4,1,9|
4,2,5.2|
4,3,0.66|
];
constraint_x10_x1=[
0,1,8.1|
0,2,6.7|
0,3,8|
0,4,3.9|
1,0,4.7|
1,2,4.9|
1,3,2.1|
1,4,7.1|
2,0,2.4|
2,1,0.43|
2,3,6|
2,4,2.4|
3,0,7.7|
3,1,5.4|
3,2,7.7|
3,4,6.3|
4,0,7.5|
4,1,1.5|
4,2,2.3|
4,3,3.9|
];
constraint_x10_x2=[
0,1,1.8|
0,2,0.71|
0,3,2.3|
0,4,8.9|
1,0,8.2|
1,2,3.8|
1,3,7.5|
1,4,9.1|
2,0,1.9|
2,1,9|
2,3,3.8|
2,4,0.89|
3,0,6.9|
3,1,1.1|
3,2,9|
3,4,9|
4,0,9.6|
4,1,0.56|
4,2,2.3|
4,3,6.4|
];
constraint_x10_x4=[
0,1,3.2|
0,2,8.7|
0,3,8.2|
0,4,0.67|
1,0,3.1|
1,2,7.9|
1,3,0.88|
1,4,4.3|
2,0,3.3|
2,1,7|
2,3,6.2|
2,4,0.48|
3,0,3.4|
3,1,3.3|
3,2,4.9|
3,4,7.7|
4,0,1.7|
4,1,3.3|
4,2,5.5|
4,3,3.3|
];
constraint_x10_x6=[
0,1,9.4|
0,2,7.9|
0,3,2.3|
0,4,1.2|
1,0,3.4|
1,2,0.96|
1,3,9.9|
1,4,7.2|
2,0,2.2|
2,1,1.2|
2,3,8.9|
2,4,6.3|
3,0,0.3|
3,1,9.8|
3,2,5.6|
3,4,5.1|
4,0,4.5|
4,1,3.7|
4,2,7.6|
4,3,3.5|
];
constraint_x10_x8=[
0,1,1.5|
0,2,3.1|
0,3,2.9|
0,4,7.8|
1,0,0.98|
1,2,5.1|
1,3,4.3|
1,4,1.5|
2,0,1.7|
2,1,7.7|
2,3,4.7|
2,4,7.8|
3,0,4.9|
3,1,1.6|
3,2,9.8|
3,4,1|
4,0,10|
4,1,0.36|
4,2,2.3|
4,3,4.2|
];
constraint_x10_x9=[
0,1,6.6|
0,2,2.6|
0,3,1.5|
0,4,0.93|
1,0,7.9|
1,2,6.5|
1,3,6.8|
1,4,2.3|
2,0,7.5|
2,1,4|
2,3,0.12|
2,4,0.98|
3,0,7.5|
3,1,8.4|
3,2,9.3|
3,4,7|
4,0,9.8|
4,1,9.1|
4,2,7.3|
4,3,9.5|
];
constraint_x1_y1=[
0,0,1.7|
0,1,9|
0,2,7.6|
0,3,9.9|
0,4,2|
1,0,5.7|
1,1,8.1|
1,2,1.9|
1,3,9|
1,4,2.4|
2,0,0.65|
2,1,8.3|
2,2,0.027|
2,3,7.2|
2,4,3.2|
3,0,1.5|
3,1,9|
3,2,5.9|
3,3,7.3|
3,4,7.5|
4,0,0.22|
4,1,7.8|
4,2,7.1|
4,3,7.9|
4,4,7.4|
];
constraint_x2_y2=[
0,0,3.6|
0,1,7.8|
0,2,8.1|
0,3,2.8|
0,4,9.1|
1,0,6.1|
1,1,5.8|
1,2,0.6|
1,3,6.8|
1,4,5.2|
2,0,0.38|
2,1,7.3|
2,2,7.5|
2,3,4.2|
2,4,4.1|
3,0,0.049|
3,1,3.7|
3,2,7.3|
3,3,9.7|
3,4,8.2|
4,0,3.3|
4,1,4.5|
4,2,9.9|
4,3,3.7|
4,4,4.8|
];
constraint_x3_y3=[
0,0,6.6|
0,1,10|
0,2,6.9|
0,3,2.2|
0,4,9.5|
1,0,8.2|
1,1,5.2|
1,2,5.5|
1,3,8.5|
1,4,4.5|
2,0,1.7|
2,1,3|
2,2,6|
2,3,9.3|
2,4,2.5|
3,0,0.12|
3,1,7.5|
3,2,8.6|
3,3,0.36|
3,4,7.9|
4,0,8.1|
4,1,4.9|
4,2,0.61|
4,3,8.3|
4,4,7.1|
];
constraint_x4_y4=[
0,0,2.7|
0,1,7.8|
0,2,1.2|
0,3,6.8|
0,4,8.8|
1,0,6.8|
1,1,1.3|
1,2,1.2|
1,3,6|
1,4,3.3|
2,0,2.7|
2,1,0.39|
2,2,0.57|
2,3,7|
2,4,0.68|
3,0,3.4|
3,1,5.7|
3,2,8.9|
3,3,3.1|
3,4,1.5|
4,0,3.5|
4,1,6.9|
4,2,2.7|
4,3,8.5|
4,4,7.1|
];
constraint_x5_y5=[
0,0,2.4|
0,1,5|
0,2,2.1|
0,3,9|
0,4,3.9|
1,0,4.7|
1,1,2.5|
1,2,8.8|
1,3,0.66|
1,4,6.5|
2,0,6.5|
2,1,2.1|
2,2,3.5|
2,3,9|
2,4,2.7|
3,0,1.4|
3,1,5.5|
3,2,3.3|
3,3,2.9|
3,4,2.1|
4,0,8.5|
4,1,6.6|
4,2,8.2|
4,3,7.6|
4,4,3.3|
];
initial_distribution_y1=[0.079,0.32,0.18,0.13,0.3];
initial_distribution_y2=[0.24,0.2,0.084,0.26,0.22];
initial_distribution_y3=[0.071,0.27,0.28,0.069,0.31];
initial_distribution_y4=[0.26,0.025,0.26,0.3,0.15];
initial_distribution_y5=[0.16,0.36,0.4,0.048,0.03];
transition_y1=[
0.14,0.28,0.26,0.15,0.17|
0.13,0.16,0.3,0.2,0.22|
0.16,0.24,0.13,0.17,0.29|
0.26,0.16,0.074,0.24,0.26|
0.3,0.26,0.19,0.088,0.16|
];
transition_y2=[
0.14,0.3,0.11,0.2,0.25|
0.32,0.15,0.24,0.14,0.14|
0.033,0.22,0.31,0.14,0.3|
0.03,0.19,0.12,0.58,0.084|
0.4,0.19,0.04,0.08,0.29|
];
transition_y3=[
0.27,0.17,0.32,0.23,0.017|
0.31,0.072,0.25,0.034,0.34|
0.14,0.28,0.24,0.068,0.27|
0.1,0.14,0.24,0.43,0.087|
0.24,0.21,0.29,0.018,0.24|
];
transition_y4=[
0.14,0.18,0.28,0.3,0.1|
0.17,0.12,0.33,0.1,0.27|
0.49,0.18,0.091,0.044,0.2|
0.029,0.28,0.11,0.31,0.28|
0.14,0.089,0.078,0.33,0.36|
];
transition_y5=[
0.19,0.18,0.18,0.23,0.22|
0.34,0.059,0.13,0.044,0.42|
0.26,0.28,0.37,0.023,0.077|
0.34,0.23,0.11,0.16,0.16|
0.36,0.11,0.047,0.31,0.18|
];
